p cnf 53 188
-1 2 -3 0
1 -2 -3 0
-1 -2 3 0
1 2 3 0
-5 4 0
-5 3 0
-4 -3 5 0
-6 -3 0
-6 5 0
3 -5 6 0
7 3 0
7 -6 0
-3 6 -7 0
-8 2 -9 0
8 -2 -9 0
-8 -2 9 0
8 2 9 0
7 -9 -10 0
-7 9 -10 0
7 9 10 0
-7 -9 10 0
12 -8 -13 0
-12 8 -13 0
12 8 13 0
-12 -8 13 0
14 -13 0
14 -4 0
13 4 -14 0
-11 -14 -15 0
11 14 -15 0
-11 14 15 0
11 -14 15 0
-17 -12 0
-17 2 0
12 -2 17 0
18 17 0
18 12 0
-17 -12 -18 0
-19 16 0
-19 18 0
-16 -18 19 0
-20 -15 0
-20 19 0
15 -19 20 0
21 -3 0
21 20 0
3 -20 -21 0
-22 -10 0
-22 -21 0
10 21 22 0
24 -8 0
24 -12 0
8 12 -24 0
-25 -23 0
-25 24 0
23 -24 25 0
26 22 0
26 25 0
-22 -25 -26 0
27 23 0
27 -24 0
-23 24 -27 0
28 -8 0
28 -27 0
8 27 -28 0
4 14 -29 0
-4 -14 -29 0
4 -14 29 0
-4 14 29 0
30 -28 0
30 -29 0
28 29 -30 0
-28 -13 -31 0
28 13 -31 0
-28 13 31 0
28 -13 31 0
-13 -1 -32 0
13 1 -32 0
-13 1 32 0
13 -1 32 0
31 -32 -33 0
-31 32 -33 0
31 32 33 0
-31 -32 33 0
-34 -30 0
-34 33 0
30 -33 34 0
-35 23 0
-35 14 0
-23 -14 35 0
36 34 0
36 35 0
-34 -35 -36 0
38 -28 0
38 -37 0
28 37 -38 0
39 27 0
39 -38 0
-27 38 -39 0
40 -39 0
40 -23 0
39 23 -40 0
-40 3 -41 0
40 -3 -41 0
-40 -3 41 0
40 3 41 0
42 -1 0
42 -23 0
1 23 -42 0
41 -42 -43 0
-41 42 -43 0
41 42 43 0
-41 -42 43 0
-5 8 -44 0
5 -8 -44 0
-5 -8 44 0
5 8 44 0
-45 -44 0
-45 -8 0
44 8 45 0
-46 43 0
-46 -45 0
-43 45 46 0
-47 -3 -48 0
47 3 -48 0
-47 3 48 0
47 -3 48 0
49 -28 0
49 18 0
28 -18 -49 0
-48 -49 -50 0
48 49 -50 0
-48 49 50 0
48 -49 50 0
-46 50 -51 0
46 -50 -51 0
-46 -50 51 0
46 50 51 0
52 36 0
52 51 0
-36 -51 -52 0
53 26 0
53 -52 0
-26 52 -53 0
-44 16 -26 0
-36 35 41 0
-6 44 35 0
9 -6 1 36 0
-49 25 -35 15 34 0
35 -46 5 -39 0
26 28 25 -4 -7 0
21 33 45 27 0
-49 20 32 0
51 -28 9 25 17 0
-29 51 -7 -49 0
-28 14 0
-27 -9 0
-1 29 -17 -47 0
36 5 -1 0
-8 -23 0
-36 24 28 0
4 33 -19 0
-39 -48 -3 0
-8 22 0
-26 44 38 11 0
-8 -1 -47 -4 -18 -19 0
-39 -41 38 18 -5 0
-19 40 0
19 -36 27 -6 0
10 -12 6 0
-14 38 0
-37 52 -24 36 -33 0
30 51 22 26 0
17 -34 51 0
-19 -1 -3 -34 25 0
-1 -40 50 0
-21 25 28 23 -31 0
-17 21 -32 -30 -43 0
45 -18 37 -51 -28 -3 0
49 21 -44 0
-32 33 -14 8 10 -9 0
-37 10 -46 7 -40 -39 0
25 -48 16 27 0
22 -51 -19 21 -11 0
29 46 0
-37 17 0
2 8 -38 -14 28 36 0
53 0
